c t mc
c file mc2022_track1_035.cnf
p cnf 134 704
-76 63 -17 -36 -128 0
35 78 127 76 -63 0
95 -49 -111 101 21 0
-77 66 5 109 68 0
-118 -6 27 -126 119 0
88 -56 -23 -116 -122 0
-86 -110 -103 41 -69 0
-115 -20 79 -107 34 0
7 42 -60 -104 -89 0
-115 -20 79 107 -34 0
-118 -6 -27 -126 -119 0
35 -78 -127 -76 63 0
93 -102 70 -97 -13 0
-4 74 -129 -46 -22 0
118 -6 27 -126 -119 0
36 -128 120 -92 125 0
10 -91 -37 4 -74 0
95 -49 -111 -101 -21 0
-36 128 -120 -92 -125 0
77 -66 -5 -109 68 0
51 -9 90 86 110 0
52 -31 64 65 -19 0
94 -47 105 115 20 0
-76 -63 -17 36 -128 0
-35 78 -127 76 -63 0
124 53 75 -1 -24 0
-93 102 70 -97 -13 0
35 78 -127 -76 -63 0
126 119 50 59 48 0
-115 -20 -79 107 34 0
-92 125 29 55 3 0
-92 125 29 -55 -3 0
28 -114 11 52 -31 0
58 98 -62 124 53 0
-51 9 90 86 110 0
-87 -39 134 130 -96 0
-94 -47 105 115 -20 0
-101 -21 131 -7 42 0
-126 -119 50 59 48 0
-93 102 -70 97 -13 0
-1 -24 -80 93 102 0
108 117 -8 43 83 0
67 -112 -71 18 15 0
59 -48 82 -14 2 0
-126 119 -50 -59 -48 0
-124 -53 75 1 24 0
-55 -3 -44 67 112 0
51 9 90 -86 110 0
-58 98 62 -124 -53 0
-93 -102 -70 97 13 0
67 -112 71 18 -15 0
107 34 -30 -133 -61 0
-109 68 -45 118 6 0
-107 -34 -30 -133 -61 0
94 47 -105 115 20 0
118 6 -27 126 119 0
67 112 -71 -18 15 0
-36 -128 120 -92 -125 0
-133 61 99 58 -98 0
-28 -114 -11 52 -31 0
46 -22 54 85 132 0
-118 -6 -27 126 119 0
97 13 26 57 121 0
-101 -21 -131 -7 -42 0
86 110 -103 -41 69 0
107 -34 30 133 61 0
14 2 -81 -87 -39 0
101 21 -131 7 42 0
-65 -19 38 95 49 0
1 -24 -80 93 -102 0
59 -48 -82 14 2 0
10 91 37 -4 74 0
-118 -6 27 126 -119 0
-28 114 11 -52 31 0
87 39 134 130 -96 0
-113 -106 -72 -40 -12 0
-43 83 -16 -51 9 0
1 24 -80 -93 -102 0
-92 125 -29 -55 3 0
43 -83 16 51 9 0
-76 -63 17 -36 -128 0
113 106 -72 40 12 0
-52 -31 -64 65 -19 0
-94 -47 -105 -115 -20 0
-86 110 -103 41 69 0
88 -56 23 116 -122 0
133 -61 99 58 -98 0
-55 3 -44 -67 112 0
85 132 -32 -108 -117 0
-65 19 -38 95 49 0
1 -24 80 93 102 0
36 128 -120 92 -125 0
-107 34 -30 -133 61 0
94 -47 -105 -115 20 0
104 89 123 -10 -91 0
130 -96 100 -35 -78 0
-28 114 -11 -52 -31 0
116 122 25 77 -66 0
118 6 27 -126 119 0
-76 63 -17 36 128 0
118 6 -27 -126 -119 0
86 110 103 41 69 0
-97 13 26 -57 121 0
113 -106 72 -40 -12 0
-55 -3 44 67 -112 0
-86 -110 103 -41 -69 0
-41 69 -73 -113 -106 0
130 -96 -100 -35 78 0
-104 -89 123 -10 -91 0
-113 106 72 -40 -12 0
101 -21 131 7 42 0
-133 61 99 -58 98 0
97 -13 -26 -57 -121 0
-57 121 -84 28 114 0
-36 -128 -120 92 -125 0
58 98 -62 -124 -53 0
88 56 23 -116 -122 0
93 102 70 -97 13 0
28 -114 11 -52 31 0
-51 -9 90 -86 110 0
43 83 16 -51 9 0
-95 49 111 101 -21 0
55 -3 -44 -67 112 0
94 47 -105 -115 -20 0
7 42 60 -104 89 0
52 -31 -64 -65 -19 0
14 2 81 -87 39 0
-92 -125 29 55 -3 0
92 125 29 55 -3 0
-87 -39 134 -130 96 0
10 -91 37 -4 -74 0
77 66 5 109 -68 0
-7 42 -60 -104 89 0
36 128 -120 -92 125 0
-101 -21 131 7 -42 0
-40 -12 33 -88 56 0
92 -125 29 -55 -3 0
-107 -34 -30 133 61 0
-124 -53 75 -1 -24 0
-28 114 11 52 -31 0
67 -112 71 -18 15 0
-35 -78 127 76 -63 0
58 -98 62 -124 -53 0
4 -74 129 -46 22 0
58 98 62 -124 53 0
-116 -122 25 77 -66 0
-1 24 80 93 102 0
-58 -98 -62 -124 -53 0
-108 117 8 -43 -83 0
-118 6 27 -126 -119 0
-115 20 79 -107 -34 0
-97 -13 26 57 121 0
52 31 64 -65 -19 0
-130 96 100 -35 -78 0
-95 49 111 -101 21 0
-57 121 84 28 -114 0
94 47 105 115 -20 0
51 -9 -90 86 -110 0
1 24 80 -93 102 0
-130 96 -100 -35 78 0
-88 -56 23 -116 -122 0
58 -98 -62 -124 53 0
76 -63 17 36 -128 0
88 56 -23 116 -122 0
104 -89 123 -10 91 0
40 12 -33 -88 -56 0
104 89 -123 10 -91 0
57 121 -84 -28 114 0
107 -34 -30 133 -61 0
-43 83 16 51 9 0
126 119 -50 -59 48 0
-85 132 -32 -108 117 0
-4 -74 129 -46 -22 0
14 2 81 87 -39 0
65 19 -38 -95 49 0
-101 21 -131 7 -42 0
-108 -117 8 43 -83 0
76 -63 -17 -36 -128 0
133 61 99 58 98 0
-133 61 -99 -58 -98 0
-7 -42 60 104 -89 0
14 -2 -81 -87 39 0
59 -48 -82 -14 -2 0
92 -125 29 55 3 0
118 -6 -27 126 -119 0
-88 56 23 -116 122 0
126 -119 50 59 -48 0
10 -91 37 4 74 0
-28 114 -11 52 31 0
36 -128 -120 -92 -125 0
-107 -34 30 133 -61 0
-133 -61 99 -58 -98 0
-43 83 -16 51 -9 0
97 -13 26 -57 121 0
109 68 45 118 6 0
77 -66 5 109 68 0
-51 -9 -90 86 110 0
46 22 -54 85 132 0
94 -47 105 -115 -20 0
-57 -121 84 -28 -114 0
87 -39 -134 130 -96 0
-36 -128 -120 -92 125 0
-52 31 64 -65 19 0
-109 -68 45 118 6 0
108 117 -8 -43 -83 0
-88 -56 -23 116 -122 0
-104 -89 -123 10 -91 0
95 -49 111 101 -21 0
-87 -39 -134 130 96 0
7 -42 60 104 89 0
-1 24 -80 -93 102 0
94 47 105 -115 20 0
113 -106 -72 40 -12 0
85 -132 32 108 117 0
76 -63 17 -36 128 0
55 3 -44 67 112 0
-95 -49 111 -101 -21 0
-55 3 44 67 112 0
36 128 120 92 125 0
-116 122 25 77 66 0
-116 -122 -25 77 66 0
-86 110 -103 -41 -69 0
107 34 -30 133 61 0
-87 -39 -134 -130 -96 0
-14 2 81 -87 -39 0
-76 63 17 -36 128 0
7 -42 -60 -104 89 0
77 66 -5 109 68 0
97 13 -26 57 -121 0
-94 47 -105 115 -20 0
-104 -89 123 10 91 0
104 -89 -123 -10 -91 0
67 112 71 18 15 0
-58 98 62 124 53 0
-126 119 50 59 -48 0
-133 -61 -99 -58 98 0
76 63 -17 -36 128 0
28 114 11 52 31 0
57 121 84 -28 -114 0
1 24 -80 93 102 0
-104 89 -123 -10 -91 0
-46 22 54 85 132 0
-58 -98 62 -124 53 0
4 74 -129 -46 22 0
52 31 -64 65 -19 0
-113 -106 -72 40 12 0
-87 39 -134 -130 96 0
14 -2 81 87 39 0
-92 -125 29 -55 3 0
-51 9 90 -86 -110 0
-46 22 -54 85 -132 0
-116 -122 25 -77 66 0
-124 53 -75 1 24 0
-133 -61 -99 58 -98 0
35 -78 -127 76 -63 0
-7 42 60 104 89 0
85 -132 32 -108 -117 0
77 66 -5 -109 -68 0
115 20 79 -107 34 0
-77 -66 -5 109 68 0
-58 -98 62 124 -53 0
-59 -48 82 -14 -2 0
133 -61 -99 58 98 0
130 96 100 -35 78 0
-58 98 -62 -124 53 0
7 42 -60 104 89 0
7 42 60 104 -89 0
-46 22 54 -85 -132 0
101 21 131 7 -42 0
97 -13 26 57 -121 0
36 -128 -120 92 125 0
-113 106 -72 40 -12 0
87 -39 -134 -130 96 0
76 63 -17 36 -128 0
-116 122 -25 -77 66 0
94 -47 -105 115 -20 0
104 -89 -123 10 91 0
-108 117 8 43 83 0
-94 47 105 -115 -20 0
-1 24 80 -93 -102 0
-115 20 -79 107 -34 0
-65 19 38 95 -49 0
-52 -31 64 65 19 0
-28 -114 -11 -52 31 0
1 -24 -80 -93 102 0
-108 117 -8 43 -83 0
-77 -66 -5 -109 -68 0
55 -3 -44 67 -112 0
52 -31 64 -65 19 0
-94 47 -105 -115 20 0
41 -69 73 -113 106 0
-65 19 -38 -95 -49 0
93 -102 70 97 13 0
-7 -42 -60 -104 -89 0
-28 -114 11 -52 -31 0
-46 -22 54 -85 132 0
-97 13 26 57 -121 0
55 -3 44 67 112 0
124 53 -75 1 -24 0
-108 117 -8 -43 83 0
51 9 -90 86 110 0
-40 -12 -33 88 56 0
-40 12 -33 -88 56 0
-58 98 -62 124 -53 0
-124 53 -75 -1 -24 0
57 -121 -84 -28 -114 0
124 -53 -75 -1 -24 0
-40 -12 -33 -88 -56 0
46 -22 -54 -85 132 0
93 102 -70 -97 -13 0
-40 -12 33 88 -56 0
41 -69 -73 113 106 0
14 -2 81 -87 -39 0
-93 -102 70 -97 13 0
-86 110 103 -41 69 0
86 -110 103 41 -69 0
124 -53 75 -1 24 0
86 110 -103 41 -69 0
-107 34 30 -133 -61 0
28 -114 -11 -52 -31 0
-14 2 -81 -87 39 0
76 63 17 36 128 0
101 -21 -131 -7 42 0
52 31 64 65 19 0
-77 66 -5 -109 68 0
-108 -117 8 -43 83 0
10 91 -37 -4 -74 0
-95 -49 111 101 21 0
88 -56 -23 116 122 0
40 12 33 -88 56 0
-118 6 27 126 119 0
43 83 16 51 -9 0
-52 -31 -64 -65 19 0
113 106 72 -40 12 0
113 -106 -72 -40 12 0
133 -61 -99 -58 -98 0
107 34 30 -133 61 0
-130 -96 100 -35 78 0
87 39 -134 130 96 0
36 -128 120 92 -125 0
-126 -119 -50 59 -48 0
-104 89 -123 10 91 0
-87 39 134 130 96 0
-88 -56 23 116 122 0
-118 6 -27 -126 119 0
-124 -53 -75 1 -24 0
4 -74 -129 46 22 0
-46 -22 54 85 -132 0
-67 112 -71 -18 -15 0
7 -42 -60 104 -89 0
109 -68 45 -118 6 0
-77 66 5 -109 -68 0
126 119 -50 59 -48 0
-35 78 127 76 63 0
-67 -112 71 -18 -15 0
-113 -106 72 40 -12 0
-4 -74 129 46 22 0
43 83 -16 -51 -9 0
130 96 -100 35 78 0
-87 39 134 -130 -96 0
28 114 11 -52 -31 0
65 19 38 -95 -49 0
43 -83 -16 -51 9 0
36 128 120 -92 -125 0
-43 -83 -16 -51 -9 0
-55 3 -44 67 -112 0
-109 -68 -45 118 -6 0
-93 -102 70 97 -13 0
57 -121 -84 28 114 0
-97 -13 -26 -57 121 0
-126 -119 -50 -59 48 0
-67 -112 -71 -18 15 0
51 9 90 86 -110 0
-109 68 45 -118 6 0
-57 -121 -84 -28 114 0
46 22 54 -85 132 0
-46 -22 -54 -85 -132 0
14 -2 -81 87 -39 0
-92 -125 -29 -55 -3 0
77 -66 -5 109 -68 0
-85 132 32 108 117 0
126 -119 -50 59 48 0
87 39 134 -130 96 0
133 61 -99 -58 98 0
40 -12 -33 88 -56 0
-57 121 -84 -28 -114 0
130 -96 100 35 78 0
108 -117 -8 -43 83 0
87 -39 134 -130 -96 0
87 -39 134 130 96 0
-101 21 -131 -7 42 0
-107 -34 30 -133 61 0
-95 49 -111 -101 -21 0
-92 125 -29 55 -3 0
107 -34 -30 -133 61 0
-67 112 71 18 -15 0
-77 -66 5 -109 68 0
-87 39 -134 130 -96 0
-85 -132 32 108 -117 0
95 49 111 101 21 0
-115 -20 -79 -107 -34 0
-52 31 64 65 -19 0
-85 132 -32 108 -117 0
1 24 80 93 -102 0
97 13 26 -57 -121 0
43 83 -16 51 9 0
-52 31 -64 -65 -19 0
93 102 70 97 -13 0
-51 9 -90 86 -110 0
-124 -53 -75 -1 24 0
109 -68 -45 118 6 0
-41 -69 -73 113 -106 0
97 13 -26 -57 121 0
-35 -78 -127 -76 -63 0
-104 -89 -123 -10 91 0
-36 128 -120 92 125 0
118 -6 -27 -126 119 0
-59 -48 -82 14 -2 0
46 -22 54 -85 -132 0
124 -53 75 1 -24 0
57 -121 84 28 -114 0
-40 12 33 -88 -56 0
92 -125 -29 -55 3 0
-115 20 -79 -107 34 0
-10 91 37 4 74 0
-41 -69 -73 -113 106 0
-41 69 -73 113 106 0
-97 -13 26 -57 -121 0
-65 -19 -38 -95 49 0
-109 68 45 118 -6 0
116 -122 -25 77 -66 0
57 121 -84 28 -114 0
46 22 -54 -85 -132 0
58 98 62 124 -53 0
4 -74 129 46 -22 0
55 3 44 -67 112 0
46 -22 -54 85 -132 0
-88 56 23 116 -122 0
-41 -69 73 -113 -106 0
116 -122 25 -77 -66 0
108 117 8 43 -83 0
-7 -42 60 -104 89 0
-107 34 30 133 61 0
-43 -83 -16 51 9 0
116 122 25 -77 66 0
-4 -74 -129 -46 22 0
7 -42 60 -104 -89 0
-97 13 -26 57 121 0
116 122 -25 77 66 0
-14 -2 -81 87 39 0
116 -122 25 77 66 0
-109 68 -45 -118 -6 0
76 -63 -17 36 128 0
41 69 -73 113 -106 0
115 -20 -79 -107 34 0
92 125 29 -55 3 0
133 -61 99 -58 98 0
-35 78 127 -76 -63 0
109 -68 -45 -118 -6 0
113 106 -72 -40 -12 0
86 110 103 -41 -69 0
58 -98 -62 124 -53 0
65 19 -38 95 -49 0
41 69 73 113 106 0
-36 128 120 92 -125 0
35 -78 127 76 63 0
115 -20 -79 107 -34 0
-67 -112 71 18 15 0
10 91 37 4 -74 0
108 117 8 -43 83 0
-35 -78 -127 76 63 0
-76 63 17 36 -128 0
85 -132 -32 108 -117 0
101 -21 131 -7 -42 0
-4 74 129 46 -22 0
-1 -24 80 93 -102 0
107 34 30 133 -61 0
126 -119 50 -59 48 0
-46 22 -54 -85 132 0
-118 6 -27 126 -119 0
-108 -117 -8 -43 -83 0
101 21 -131 -7 -42 0
-76 -63 -17 -36 128 0
130 -96 -100 35 -78 0
43 -83 -16 51 -9 0
-85 -132 32 -108 117 0
-10 -91 -37 -4 -74 0
-95 49 -111 101 21 0
41 -69 73 113 -106 0
35 -78 127 -76 -63 0
-67 -112 -71 18 -15 0
-126 119 -50 59 48 0
4 74 129 -46 -22 0
109 68 -45 -118 6 0
-35 -78 127 -76 63 0
65 -19 -38 95 49 0
-126 -119 50 -59 -48 0
55 -3 44 -67 -112 0
-14 2 81 87 39 0
-14 -2 81 87 -39 0
-85 132 32 -108 -117 0
87 39 -134 -130 -96 0
41 69 73 -113 -106 0
109 68 45 -118 -6 0
-35 78 -127 -76 63 0
126 119 50 -59 -48 0
-104 89 123 -10 91 0
-59 48 82 14 -2 0
-10 -91 37 -4 74 0
93 -102 -70 97 -13 0
-36 -128 120 92 125 0
-4 74 -129 46 22 0
-41 69 73 113 -106 0
-116 122 25 -77 -66 0
-85 -132 -32 -108 -117 0
-65 -19 38 -95 -49 0
-104 89 123 10 -91 0
-28 -114 11 52 31 0
-133 61 -99 58 98 0
104 89 -123 -10 91 0
35 78 -127 76 63 0
-43 -83 16 -51 9 0
113 -106 72 40 12 0
-4 74 129 -46 22 0
86 -110 -103 41 69 0
-108 -117 -8 43 83 0
-88 -56 -23 -116 122 0
65 -19 38 95 -49 0
-4 -74 -129 46 -22 0
-93 102 70 97 13 0
-67 112 -71 18 15 0
40 12 -33 88 56 0
-133 -61 99 58 98 0
-86 -110 103 41 69 0
-10 91 37 -4 -74 0
109 -68 45 118 -6 0
115 -20 79 107 34 0
88 56 -23 -116 122 0
55 3 -44 -67 -112 0
92 125 -29 55 3 0
59 48 -82 -14 2 0
95 -49 111 -101 21 0
-101 21 131 -7 -42 0
-57 -121 -84 28 -114 0
-101 -21 -131 7 42 0
4 -74 -129 -46 -22 0
-10 -91 37 4 -74 0
115 20 -79 107 34 0
-126 119 50 -59 48 0
-88 56 -23 116 122 0
-55 -3 44 -67 112 0
-76 -63 17 36 128 0
-43 -83 16 51 -9 0
-116 -122 -25 -77 -66 0
-57 -121 84 28 114 0
51 -9 -90 -86 110 0
124 -53 -75 1 24 0
-40 12 -33 88 -56 0
59 -48 82 14 -2 0
-14 -2 81 -87 39 0
101 -21 -131 7 -42 0
-51 9 -90 -86 110 0
-124 53 75 1 -24 0
4 74 -129 46 -22 0
-7 42 60 -104 -89 0
113 106 72 40 -12 0
-1 24 -80 93 -102 0
28 114 -11 -52 31 0
-113 106 -72 -40 12 0
67 -112 -71 -18 -15 0
126 -119 -50 -59 -48 0
-86 -110 -103 -41 69 0
51 -9 90 -86 -110 0
-65 -19 -38 95 -49 0
59 48 82 14 2 0
46 22 54 85 -132 0
133 61 -99 58 -98 0
-92 -125 -29 55 3 0
115 20 79 107 -34 0
92 -125 -29 55 -3 0
-93 102 -70 -97 13 0
-41 -69 73 113 106 0
130 96 -100 -35 -78 0
92 125 -29 -55 -3 0
95 49 -111 -101 21 0
65 -19 38 -95 49 0
41 69 -73 -113 106 0
-77 -66 5 109 -68 0
-124 53 75 -1 24 0
-88 56 -23 -116 -122 0
40 12 33 88 -56 0
85 132 -32 108 117 0
-59 48 -82 14 2 0
-59 -48 -82 -14 2 0
1 -24 80 -93 -102 0
95 49 111 -101 -21 0
85 -132 -32 -108 117 0
104 89 123 10 91 0
59 48 -82 14 -2 0
52 -31 -64 65 19 0
-130 -96 100 35 -78 0
124 53 75 1 24 0
88 56 23 116 122 0
41 -69 -73 -113 -106 0
133 61 99 -58 -98 0
-85 -132 -32 108 117 0
-58 -98 -62 124 53 0
-95 -49 -111 -101 21 0
93 -102 -70 -97 13 0
10 -91 -37 -4 74 0
93 102 -70 97 13 0
-109 -68 45 -118 -6 0
-55 -3 -44 -67 -112 0
109 68 -45 118 -6 0
-14 2 -81 87 -39 0
86 -110 -103 -41 -69 0
-97 13 -26 -57 -121 0
76 63 17 -36 -128 0
-59 -48 82 14 2 0
115 20 -79 -107 -34 0
67 112 -71 18 -15 0
97 -13 -26 57 121 0
65 -19 -38 -95 -49 0
-113 106 72 40 12 0
108 -117 8 43 83 0
-67 112 71 -18 15 0
-36 128 120 -92 125 0
-59 48 82 -14 2 0
14 2 -81 87 39 0
40 -12 -33 -88 56 0
40 -12 33 88 56 0
-7 42 -60 104 -89 0
4 74 129 46 22 0
-130 -96 -100 -35 -78 0
108 -117 -8 43 -83 0
108 -117 8 -43 -83 0
-116 122 -25 77 -66 0
57 -121 84 -28 114 0
35 78 127 -76 63 0
-94 -47 105 -115 20 0
-46 -22 -54 85 132 0
-55 3 44 -67 -112 0
-130 -96 -100 35 78 0
86 -110 103 -41 69 0
-113 -106 72 -40 12 0
-14 -2 -81 -87 -39 0
-77 66 -5 109 -68 0
77 -66 5 -109 -68 0
118 -6 27 126 119 0
67 112 71 -18 -15 0
52 31 -64 -65 19 0
-97 -13 -26 57 -121 0
65 19 38 95 49 0
-10 91 -37 4 -74 0
-51 -9 90 86 -110 0
107 -34 30 -133 -61 0
124 53 -75 -1 24 0
85 132 32 108 -117 0
55 3 44 67 -112 0
116 122 -25 -77 -66 0
-52 -31 64 -65 -19 0
-93 -102 -70 -97 -13 0
-1 -24 80 -93 102 0
10 91 -37 4 74 0
28 -114 -11 52 31 0
-107 34 -30 133 -61 0
40 -12 33 -88 -56 0
-65 19 38 -95 49 0
130 96 100 35 -78 0
88 -56 23 -116 122 0
101 21 131 -7 42 0
85 132 32 -108 117 0
58 -98 62 124 53 0
-94 -47 -105 115 20 0
-109 -68 -45 -118 6 0
-115 20 79 107 34 0
-40 12 33 88 56 0
-43 83 16 -51 -9 0
-51 -9 -90 -86 -110 0
28 114 -11 52 -31 0
-57 121 84 -28 114 0
59 48 82 -14 -2 0
115 -20 79 -107 -34 0
118 6 27 126 -119 0
-95 -49 -111 101 -21 0
-86 110 103 41 -69 0
104 -89 123 10 -91 0
-59 48 -82 -14 -2 0
-101 21 131 7 42 0
-41 69 73 -113 106 0
-10 91 -37 -4 74 0
51 9 -90 -86 -110 0
-7 -42 -60 104 89 0
-52 31 -64 65 19 0
57 121 84 28 114 0
95 49 -111 101 -21 0
116 -122 -25 -77 66 0
77 66 5 -109 68 0
-130 96 100 35 78 0
-10 -91 -37 4 74 0
-1 -24 -80 -93 -102 0
43 -83 16 -51 -9 0
-94 47 105 115 20 0
-130 96 -100 35 -78 0
